s td 35 45 92
b 1 3 21 25 45 70 77 80
b 2 1 2 4 5 11 12 15 16 17 19 20 21 25 27 28 29 31 37 44 47 48 50 64 66 67 70 74 76 77 81 82 83 85 89
b 3 21 25 44 45 67 70 77 83
b 4 3 21 25 44 45 70 77 83
b 5 1 2 4 5 11 12 15 16 17 19 20 21 25 27 28 29 31 37 44 47 48 50 52 64 66 70 74 76 77 81 82 83 85 89
b 6 1 2 4 5 8 11 12 15 16 17 19 20 21 27 28 29 31 37 44 47 48 50 52 64 66 70 74 76 77 81 82 83 85 89
b 7 1 2 4 5 8 11 12 15 16 17 19 20 27 28 29 31 37 47 48 50 52 64 66 70 74 76 77 81 82 83 85 88 89
b 8 1 2 5 6 8 11 12 15 16 17 18 19 20 22 23 26 27 28 29 30 31 32 37 39 40 43 47 48 50 52 64 65 66 70 74 76 77 81 82 83 85 88 89 91 92
b 9 1 2 6 8 11 12 16 17 18 20 22 23 26 27 28 29 30 31 32 34 37 39 40 43 47 48 50 52 64 65 66 70 74 76 77 81 82 83 85 88 89 91 92
b 10 1 2 5 6 8 11 12 16 17 18 20 22 23 26 27 28 29 30 31 32 37 39 40 41 43 47 48 50 52 64 65 66 70 74 76 77 81 82 83 88 89 91 92
b 11 1 2 6 8 11 12 16 17 18 19 20 22 23 26 27 28 29 30 31 32 37 39 40 43 47 48 49 50 52 64 65 66 70 74 76 77 81 82 83 88 89 91 92
b 12 1 2 6 8 11 12 15 16 17 18 20 22 23 26 27 28 29 30 31 32 37 39 40 43 47 48 50 52 53 64 65 66 70 74 76 77 81 82 83 88 89 91 92
b 13 5 8 12 15 19 27 28 29 37 44 48 50 51 52 64 70 77 81 83 85 89
b 14 5 12 15 19 27 28 29 37 44 48 51 56 64 70 81 83 85 89
b 15 8 28 51 52 68 70 77 83
b 16 1 2 4 5 11 12 15 16 17 19 20 21 25 27 28 29 31 37 44 47 48 64 66 67 70 74 76 77 81 82 83 84 85 89
b 17 1 2 4 5 11 12 15 16 17 19 20 21 25 27 28 29 37 44 47 48 64 66 67 70 74 76 77 79 81 82 83 84 85 89
b 18 1 2 4 5 11 12 15 16 17 19 20 21 25 27 28 29 37 44 47 48 64 66 67 70 75 76 77 79 81 82 83 84 85 89
b 19 1 2 4 5 11 12 15 16 17 19 20 21 25 27 28 29 37 44 47 48 64 66 67 70 73 75 76 77 79 82 83 84 85 89
b 20 1 2 4 5 11 12 15 16 17 19 20 21 25 27 28 29 37 44 48 64 66 67 70 71 73 75 76 77 79 82 83 84 85 89
b 21 1 2 4 5 11 15 16 17 19 20 21 25 27 28 29 37 44 48 64 66 67 69 70 71 73 75 76 77 79 82 83 84 85 89
b 22 1 2 4 5 11 15 16 17 19 20 21 25 27 28 29 37 44 48 61 66 67 69 70 71 73 75 76 77 79 82 83 84 85 89
b 23 1 2 4 11 15 16 17 19 20 21 25 27 28 29 37 44 48 60 61 66 67 69 70 71 73 75 76 77 79 82 83 84 85 89
b 24 1 2 4 11 15 16 17 19 20 21 25 27 28 29 37 44 48 58 60 61 66 67 69 70 71 73 75 76 77 79 82 83 84 85
b 25 1 2 4 11 15 16 17 19 20 21 25 27 28 29 37 44 48 55 58 60 61 66 67 69 70 71 73 75 76 77 79 82 83 84
b 26 1 2 4 11 15 16 17 19 20 21 25 27 28 37 44 46 48 55 58 60 61 66 67 69 70 71 73 75 76 77 79 82 83 84
b 27 1 2 4 11 15 16 17 19 20 21 25 27 28 36 37 44 46 55 58 60 61 66 67 69 70 71 73 75 76 77 79 82 83 84
b 28 1 2 4 11 14 15 16 17 19 20 21 25 28 36 37 44 46 55 58 60 61 66 67 69 70 71 73 75 76 77 79 82 83 84
b 29 1 2 4 11 13 14 15 16 17 19 20 21 25 28 36 44 46 55 58 60 61 66 67 69 70 71 73 75 76 77 79 82 83 84
b 30 1 2 4 10 11 13 14 16 17 19 20 21 25 28 36 44 46 55 58 60 61 66 67 69 70 71 73 75 76 77 79 82 83 84
b 31 1 2 4 7 9 10 11 13 14 16 17 20 24 28 35 36 42 44 46 54 55 57 58 59 60 61 63 66 69 70 71 72 73 75 76 77 78 79 82 83 84 86 90
b 32 1 2 4 7 9 10 11 13 16 17 20 24 28 33 35 36 42 44 54 57 58 59 60 61 63 66 69 70 71 72 73 75 76 77 78 79 82 83 84 86 90
b 33 1 2 4 7 9 10 11 13 14 16 17 20 24 28 35 36 38 42 44 54 57 58 59 60 61 63 66 69 70 72 73 75 76 77 78 79 82 83 84 86 90
b 34 1 2 4 7 9 10 11 13 16 17 20 24 28 35 36 42 44 46 54 57 58 59 60 61 62 63 66 69 70 72 73 75 76 77 78 79 82 83 84 86 90
b 35 1 2 4 7 9 10 11 13 16 17 20 24 28 35 36 42 44 54 55 57 58 59 60 61 63 66 69 70 72 73 75 76 77 78 79 82 83 84 86 87 90
1 4
2 3
2 5
2 16
3 4
5 6
6 7
6 13
7 8
8 9
8 10
8 11
8 12
13 14
13 15
16 17
17 18
18 19
19 20
20 21
21 22
22 23
23 24
24 25
25 26
26 27
27 28
28 29
29 30
30 31
31 32
31 33
31 34
31 35
